
Gurobi 8.0.1 (linux64) logging started Tue Feb  5 14:20:50 2019


Gurobi Optimizer version 8.0.1 build v8.0.1rc0 (linux64)
Copyright (c) 2018, Gurobi Optimization, LLC


ERROR 10003: Unable to open file 'fichierLP.lp' for input


Gurobi 8.0.1 (linux64) logging started Tue Feb  5 14:21:12 2019


Gurobi Optimizer version 8.0.1 build v8.0.1rc0 (linux64)
Copyright (c) 2018, Gurobi Optimization, LLC

Read LP format model from file monFichierLP.lp
Reading time = 0.01 seconds
obj: 3 rows, 4 columns, 9 nonzeros
Optimize a model with 3 rows, 4 columns and 9 nonzeros
Variable types: 2 continuous, 2 integer (2 binary)
Coefficient statistics:
  Matrix range     [1e+00, 1e+01]
  Objective range  [1e+00, 3e+00]
  Bounds range     [1e+00, 4e+01]
  RHS range        [2e+01, 3e+01]
Found heuristic solution: objective 30.0000000
Presolve removed 3 rows and 4 columns
Presolve time: 0.01s
Presolve: All rows and columns removed

Explored 0 nodes (0 simplex iterations) in 0.05 seconds
Thread count was 1 (of 8 available processors)

Solution count 2: 50.5 30 

Optimal solution found (tolerance 1.00e-04)
Best objective 5.050000000000e+01, best bound 5.050000000000e+01, gap 0.0000%

Wrote result file 'affectation.sol'


Gurobi 8.0.1 (linux64) logging started Tue Feb  5 15:06:34 2019


Gurobi Optimizer version 8.0.1 build v8.0.1rc0 (linux64)
Copyright (c) 2018, Gurobi Optimization, LLC

Read LP format model from file monFichierLP.lp
Reading time = 0.00 seconds
obj: 11 rows, 22 columns, 22 nonzeros
Optimize a model with 11 rows, 22 columns and 22 nonzeros
Variable types: 0 continuous, 22 integer (22 binary)
Coefficient statistics:
  Matrix range     [1e+00, 1e+00]
  Objective range  [1e+00, 1e+00]
  Bounds range     [1e+00, 1e+00]
  RHS range        [1e+00, 1e+00]
Found heuristic solution: objective 11.0000000
Presolve removed 11 rows and 22 columns
Presolve time: 0.00s
Presolve: All rows and columns removed

Explored 0 nodes (0 simplex iterations) in 0.00 seconds
Thread count was 1 (of 8 available processors)

Solution count 1: 11 

Optimal solution found (tolerance 1.00e-04)
Best objective 1.100000000000e+01, best bound 1.100000000000e+01, gap 0.0000%

Wrote result file 'affectation.sol'


Gurobi 8.0.1 (linux64) logging started Tue Feb  5 15:07:40 2019


Gurobi Optimizer version 8.0.1 build v8.0.1rc0 (linux64)
Copyright (c) 2018, Gurobi Optimization, LLC

Read LP format model from file monFichierLP.lp
Reading time = 0.00 seconds
obj: 11 rows, 22 columns, 22 nonzeros
Optimize a model with 11 rows, 22 columns and 22 nonzeros
Variable types: 0 continuous, 22 integer (22 binary)
Coefficient statistics:
  Matrix range     [1e+00, 1e+00]
  Objective range  [1e+00, 1e+00]
  Bounds range     [1e+00, 1e+00]
  RHS range        [1e+00, 1e+00]
Found heuristic solution: objective 11.0000000
Presolve removed 11 rows and 22 columns
Presolve time: 0.00s
Presolve: All rows and columns removed

Explored 0 nodes (0 simplex iterations) in 0.00 seconds
Thread count was 1 (of 8 available processors)

Solution count 1: 11 

Optimal solution found (tolerance 1.00e-04)
Best objective 1.100000000000e+01, best bound 1.100000000000e+01, gap 0.0000%

Wrote result file 'affectation.sol'


Gurobi 8.0.1 (linux64) logging started Tue Feb  5 15:42:40 2019


Gurobi Optimizer version 8.0.1 build v8.0.1rc0 (linux64)
Copyright (c) 2018, Gurobi Optimization, LLC

Read LP format model from file monFichierLP.lp
Reading time = 0.00 seconds
obj: 11 rows, 44 columns, 44 nonzeros
Optimize a model with 11 rows, 44 columns and 44 nonzeros
Variable types: 0 continuous, 44 integer (44 binary)
Coefficient statistics:
  Matrix range     [1e+00, 1e+00]
  Objective range  [1e+00, 1e+00]
  Bounds range     [1e+00, 1e+00]
  RHS range        [1e+00, 1e+00]
Found heuristic solution: objective 11.0000000
Presolve removed 11 rows and 44 columns
Presolve time: 0.00s
Presolve: All rows and columns removed

Explored 0 nodes (0 simplex iterations) in 0.00 seconds
Thread count was 1 (of 8 available processors)

Solution count 1: 11 

Optimal solution found (tolerance 1.00e-04)
Best objective 1.100000000000e+01, best bound 1.100000000000e+01, gap 0.0000%

Wrote result file 'affectation.sol'

